networks/zoo_36_306/standard/zoo_36_306.sol
<?xml version = "1.0" encoding="UTF-8" standalone="yes"?>
<CPLEXSolution version="1.2">
 <header
   problemName="networks/zoo_36_306/zoo_36_306.lp"
   solutionName="incumbent"
   solutionIndex="-1"
   objectiveValue="18"
   solutionTypeValue="3"
   solutionTypeString="primal"
   solutionStatusValue="101"
   solutionStatusString="integer optimal solution"
   solutionMethodString="mip"
   primalFeasible="1"
   dualFeasible="1"
   MIPNodes="0"
   MIPIterations="827"
   writeLevel="3"/>
 <quality
   epInt="1.0000000000000001e-05"
   epRHS="9.9999999999999995e-07"
   maxIntInfeas="0"
   maxPrimalInfeas="0"
   maxX="3"
   maxSlack="9"/>
 <variables>
  <variable name="Y(1,2)" index="1" value="1"/>
  <variable name="Y(2,3)" index="38" value="1"/>
  <variable name="Y(3,4)" index="75" value="1"/>
  <variable name="Y(5,6)" index="149" value="1"/>
  <variable name="Y(9,10)" index="297" value="1"/>
  <variable name="Y(102,18)" index="3653" value="1"/>
  <variable name="Y(109,8)" index="3895" value="1"/>
  <variable name="Y(120,1)" index="4284" value="1"/>
  <variable name="Y(152,17)" index="5452" value="1"/>
  <variable name="Y(162,9)" index="5804" value="1"/>
  <variable name="Y(166,14)" index="5953" value="1"/>
  <variable name="Y(226,5)" index="8104" value="1"/>
  <variable name="Y(236,16)" index="8475" value="1"/>
  <variable name="Y(296,7)" index="10626" value="1"/>
  <variable name="Y(300,11)" index="10774" value="1"/>
  <variable name="Y(301,12)" index="10811" value="1"/>
  <variable name="Y(302,13)" index="10848" value="1"/>
  <variable name="Y(304,15)" index="10922" value="1"/>
  <variable name="X(1,2,1)" index="11016" value="1"/>
  <variable name="X(1,5,226)" index="11547" value="1"/>
  <variable name="X(1,19,120)" index="11747" value="1"/>
  <variable name="X(2,1,226)" index="12159" value="1"/>
  <variable name="X(2,17,3)" index="12242" value="1"/>
  <variable name="X(2,20,1)" index="12546" value="1"/>
  <variable name="X(3,4,102)" index="12953" value="1"/>
  <variable name="X(3,6,5)" index="13162" value="1"/>
  <variable name="X(3,21,2)" index="13465" value="1"/>
  <variable name="X(4,3,2)" index="13771" value="1"/>
  <variable name="X(4,18,102)" index="14177" value="1"/>
  <variable name="X(4,22,3)" index="14384" value="1"/>
  <variable name="X(5,1,120)" index="14807" value="1"/>
  <variable name="X(5,8,296)" index="15289" value="1"/>
  <variable name="X(5,23,226)" index="15525" value="1"/>
  <variable name="X(6,3,102)" index="15707" value="1"/>
  <variable name="X(6,24,5)" index="15916" value="1"/>
  <variable name="X(7,8,109)" index="16326" value="1"/>
  <variable name="X(7,25,296)" index="16819" value="1"/>
  <variable name="X(8,5,120)" index="16949" value="1"/>
  <variable name="X(8,7,296)" index="17431" value="1"/>
  <variable name="X(8,26,109)" index="17550" value="1"/>
  <variable name="X(9,10,9)" index="17756" value="1"/>
  <variable name="X(9,12,166)" index="18219" value="1"/>
  <variable name="X(9,27,162)" index="18521" value="1"/>
  <variable name="X(10,9,162)" index="18827" value="1"/>
  <variable name="X(10,28,9)" index="18980" value="1"/>
  <variable name="X(11,12,301)" index="19578" value="1"/>
  <variable name="X(11,14,166)" index="19749" value="1"/>
  <variable name="X(11,29,300)" index="20189" value="1"/>
  <variable name="X(12,9,9)" index="20204" value="1"/>
  <variable name="X(12,11,166)" index="20667" value="1"/>
  <variable name="X(12,30,301)" index="21108" value="1"/>
  <variable name="X(13,14,300)" index="21413" value="1"/>
  <variable name="X(13,16,236)" index="21655" value="1"/>
  <variable name="X(13,31,302)" index="22027" value="1"/>
  <variable name="X(14,11,300)" index="22331" value="1"/>
  <variable name="X(14,13,236)" index="22573" value="1"/>
  <variable name="X(14,32,166)" index="22809" value="1"/>
  <variable name="X(15,16,302)" index="23251" value="1"/>
  <variable name="X(15,18,152)" index="23407" value="1"/>
  <variable name="X(15,33,304)" index="23865" value="1"/>
  <variable name="X(16,13,302)" index="24169" value="1"/>
  <variable name="X(16,15,152)" index="24325" value="1"/>
  <variable name="X(16,34,236)" index="24715" value="1"/>
  <variable name="X(17,2,226)" index="25011" value="1"/>
  <variable name="X(17,18,3)" index="25094" value="1"/>
  <variable name="X(17,35,152)" index="25549" value="1"/>
  <variable name="X(18,4,3)" index="25706" value="1"/>
  <variable name="X(18,15,304)" index="26313" value="1"/>
  <variable name="X(18,17,152)" index="26467" value="1"/>
  <variable name="X(18,36,102)" index="26723" value="1"/>
  <variable name="C(1,2)" index="26929" value="1"/>
  <variable name="C(2,3)" index="26935" value="1"/>
  <variable name="C(3,17)" index="26938" value="1"/>
  <variable name="C(3,18)" index="26939" value="2"/>
  <variable name="C(3,4)" index="26940" value="3"/>
  <variable name="C(5,6)" index="26949" value="1"/>
  <variable name="C(9,9)" index="26978" value="1"/>
  <variable name="C(9,10)" index="26979" value="2"/>
  <variable name="C(102,3)" index="27559" value="1"/>
  <variable name="C(102,4)" index="27560" value="2"/>
  <variable name="C(102,18)" index="27561" value="3"/>
  <variable name="C(109,8)" index="27602" value="1"/>
  <variable name="C(120,5)" index="27709" value="1"/>
  <variable name="C(120,1)" index="27710" value="2"/>
  <variable name="C(152,15)" index="27963" value="1"/>
  <variable name="C(152,18)" index="27964" value="2"/>
  <variable name="C(152,17)" index="27965" value="3"/>
  <variable name="C(162,9)" index="28073" value="1"/>
  <variable name="C(166,12)" index="28089" value="1"/>
  <variable name="C(166,11)" index="28090" value="2"/>
  <variable name="C(166,14)" index="28091" value="3"/>
  <variable name="C(226,2)" index="28484" value="1"/>
  <variable name="C(226,1)" index="28485" value="2"/>
  <variable name="C(226,5)" index="28486" value="3"/>
  <variable name="C(236,13)" index="28537" value="1"/>
  <variable name="C(236,16)" index="28538" value="2"/>
  <variable name="C(296,8)" index="28830" value="1"/>
  <variable name="C(296,7)" index="28831" value="2"/>
  <variable name="C(300,14)" index="28859" value="1"/>
  <variable name="C(300,11)" index="28860" value="2"/>
  <variable name="C(301,12)" index="28867" value="1"/>
  <variable name="C(302,16)" index="28870" value="1"/>
  <variable name="C(302,13)" index="28871" value="2"/>
  <variable name="C(304,15)" index="28878" value="1"/>
 </variables>
</CPLEXSolution>
